Version identifier: 22.1.1.0 | 2022-11-28 | 9160aff4d
CPXPARAM_Threads                                 1
CPXPARAM_MIP_Strategy_VariableSelect             3
CPXPARAM_TimeLimit                               599.99930780399995
Found incumbent of value 0.000000 after 0.00 sec. (0.16 ticks)

Root node processing (before b&c):
  Real time             =    0.00 sec. (0.18 ticks)
Sequential b&c:
  Real time             =    0.00 sec. (0.00 ticks)
                          ------------
Total (root+branch&cut) =    0.00 sec. (0.18 ticks)
Version identifier: 22.1.1.0 | 2022-11-28 | 9160aff4d
CPXPARAM_Threads                                 1
CPXPARAM_MIP_Strategy_VariableSelect             3
CPXPARAM_TimeLimit                               599.99428304000003
Found incumbent of value 0.000000 after 0.00 sec. (0.24 ticks)

Root node processing (before b&c):
  Real time             =    0.00 sec. (0.27 ticks)
Sequential b&c:
  Real time             =    0.00 sec. (0.00 ticks)
                          ------------
Total (root+branch&cut) =    0.00 sec. (0.27 ticks)
Version identifier: 22.1.1.0 | 2022-11-28 | 9160aff4d
CPXPARAM_Threads                                 1
CPXPARAM_MIP_Strategy_VariableSelect             3
CPXPARAM_TimeLimit                               599.98820734699996
Found incumbent of value 0.000000 after 0.00 sec. (0.27 ticks)

Root node processing (before b&c):
  Real time             =    0.00 sec. (0.31 ticks)
Sequential b&c:
  Real time             =    0.00 sec. (0.00 ticks)
                          ------------
Total (root+branch&cut) =    0.00 sec. (0.31 ticks)
Version identifier: 22.1.1.0 | 2022-11-28 | 9160aff4d
CPXPARAM_Threads                                 1
CPXPARAM_MIP_Strategy_VariableSelect             3
CPXPARAM_TimeLimit                               599.98112062099995
Tried aggregator 1 time.
MIP Presolve eliminated 385 rows and 748 columns.
MIP Presolve modified 1 coefficients.
Reduced MIP has 749 rows, 1496 columns, and 9447 nonzeros.
Reduced MIP has 1496 binaries, 0 generals, 0 SOSs, and 0 indicators.
Presolve time = 0.01 sec. (6.74 ticks)
Found incumbent of value 0.000000 after 0.01 sec. (15.74 ticks)

Root node processing (before b&c):
  Real time             =    0.01 sec. (15.82 ticks)
Sequential b&c:
  Real time             =    0.00 sec. (0.00 ticks)
                          ------------
Total (root+branch&cut) =    0.01 sec. (15.82 ticks)
Version identifier: 22.1.1.0 | 2022-11-28 | 9160aff4d
CPXPARAM_Threads                                 1
CPXPARAM_MIP_Strategy_VariableSelect             3
CPXPARAM_TimeLimit                               599.95958886400001
Tried aggregator 1 time.
MIP Presolve eliminated 397 rows and 772 columns.
MIP Presolve modified 1 coefficients.
Reduced MIP has 773 rows, 1544 columns, and 9753 nonzeros.
Reduced MIP has 1544 binaries, 0 generals, 0 SOSs, and 0 indicators.
Presolve time = 0.01 sec. (6.96 ticks)
Found incumbent of value 0.000000 after 0.02 sec. (17.68 ticks)

Root node processing (before b&c):
  Real time             =    0.02 sec. (17.77 ticks)
Sequential b&c:
  Real time             =    0.00 sec. (0.00 ticks)
                          ------------
Total (root+branch&cut) =    0.02 sec. (17.77 ticks)
Version identifier: 22.1.1.0 | 2022-11-28 | 9160aff4d
CPXPARAM_Threads                                 1
CPXPARAM_MIP_Strategy_VariableSelect             3
CPXPARAM_TimeLimit                               599.93626540800005
Tried aggregator 1 time.
MIP Presolve eliminated 403 rows and 784 columns.
MIP Presolve modified 1 coefficients.
Reduced MIP has 785 rows, 1568 columns, and 9906 nonzeros.
Reduced MIP has 1568 binaries, 0 generals, 0 SOSs, and 0 indicators.
Presolve time = 0.01 sec. (7.07 ticks)
Probing time = 0.00 sec. (3.78 ticks)
Tried aggregator 1 time.
Detecting symmetries...
Reduced MIP has 785 rows, 1568 columns, and 9906 nonzeros.
Reduced MIP has 1568 binaries, 0 generals, 0 SOSs, and 0 indicators.
Presolve time = 0.00 sec. (5.93 ticks)
Probing time = 0.00 sec. (3.78 ticks)
Clique table members: 392.
MIP emphasis: balance optimality and feasibility.
MIP search method: dynamic search.
Parallel mode: none, using 1 thread.
Root relaxation solution time = 0.01 sec. (9.34 ticks)

        Nodes                                         Cuts/
   Node  Left     Objective  IInf  Best Integer    Best Bound    ItCnt     Gap

      0     0        0.0000    45                      0.0000      317         
*     0+    0                            0.0000        0.0000             0.00%
      0     0        cutoff              0.0000        0.0000      317    0.00%
Elapsed time = 0.04 sec. (58.13 ticks, tree = 0.01 MB, solutions = 1)

Root node processing (before b&c):
  Real time             =    0.04 sec. (58.20 ticks)
Sequential b&c:
  Real time             =    0.00 sec. (0.00 ticks)
                          ------------
Total (root+branch&cut) =    0.04 sec. (58.20 ticks)
Version identifier: 22.1.1.0 | 2022-11-28 | 9160aff4d
CPXPARAM_Threads                                 1
CPXPARAM_MIP_Strategy_VariableSelect             3
CPXPARAM_TimeLimit                               599.88567807499999
Tried aggregator 1 time.
MIP Presolve eliminated 407 rows and 792 columns.
MIP Presolve modified 1 coefficients.
Reduced MIP has 793 rows, 1584 columns, and 10008 nonzeros.
Reduced MIP has 1584 binaries, 0 generals, 0 SOSs, and 0 indicators.
Presolve time = 0.01 sec. (7.15 ticks)
Probing time = 0.00 sec. (3.79 ticks)
Tried aggregator 1 time.
Detecting symmetries...
Reduced MIP has 793 rows, 1584 columns, and 10008 nonzeros.
Reduced MIP has 1584 binaries, 0 generals, 0 SOSs, and 0 indicators.
Presolve time = 0.00 sec. (6.00 ticks)
Probing time = 0.00 sec. (3.79 ticks)
Clique table members: 396.
MIP emphasis: balance optimality and feasibility.
MIP search method: dynamic search.
Parallel mode: none, using 1 thread.
Root relaxation solution time = 0.01 sec. (8.98 ticks)

        Nodes                                         Cuts/
   Node  Left     Objective  IInf  Best Integer    Best Bound    ItCnt     Gap

*     0     0      integral     0        0.0000        0.0000      290    0.00%
Elapsed time = 0.03 sec. (43.46 ticks, tree = 0.00 MB, solutions = 1)

Root node processing (before b&c):
  Real time             =    0.03 sec. (43.53 ticks)
Sequential b&c:
  Real time             =    0.00 sec. (0.00 ticks)
                          ------------
Total (root+branch&cut) =    0.03 sec. (43.53 ticks)
Version identifier: 22.1.1.0 | 2022-11-28 | 9160aff4d
CPXPARAM_Threads                                 1
CPXPARAM_MIP_Strategy_VariableSelect             3
CPXPARAM_TimeLimit                               599.84699761100001
Tried aggregator 1 time.
MIP Presolve eliminated 409 rows and 796 columns.
MIP Presolve modified 1 coefficients.
Reduced MIP has 797 rows, 1592 columns, and 10059 nonzeros.
Reduced MIP has 1592 binaries, 0 generals, 0 SOSs, and 0 indicators.
Presolve time = 0.01 sec. (7.18 ticks)
Found incumbent of value 0.000000 after 0.02 sec. (19.69 ticks)

Root node processing (before b&c):
  Real time             =    0.02 sec. (19.77 ticks)
Sequential b&c:
  Real time             =    0.00 sec. (0.00 ticks)
                          ------------
Total (root+branch&cut) =    0.02 sec. (19.77 ticks)
Primal:	199
Dual:	199
Status:	Optimal
Time:	0.176303
Sequence:
	0
	4
	5
	1
	4
	0
	5
	9
	5
	5
	10
	9
	0
	1
	9
	1
	1
	9
	5
	9
	5
	5
	9
	0
	9
	5
	10
	10
	9
	5
	4
	1
	1
	1
	9
	10
	4
	5
	1
	0
	9
	5
	0
	5
	9
	0
	5
	9
	1
	0
	9
	5
	4
	0
	9
	4
	5
	0
	5
	9
	1
	1
	4
	0
	4
	1
	5
	9
	5
	5
	9
	5
	5
	0
	9
	5
	5
	3
	9
	10
	5
	0
	4
	5
	1
	1
	9
	1
	1
	9
	10
	5
	1
	4
	10
	1
	0
	4
	1
	9
	5
	0
	1
	9
	9
	5
	4
	9
	0
	5
	9
	5
	0
	9
	1
	9
	8
	10
	9
	4
	5
	0
	5
	4
	9
	5
	0
	5
	9
	4
	1
	1
	4
	4
	9
	1
	9
	1
	5
	9
	9
	1
	4
	9
	9
	10
	10
	10
	4
	1
	0
	1
	9
	5
	1
	4
	10
	4
	5
	1
	4
	9
	4
	0
	5
	5
	9
	0
	5
	4
	10
	0
	1
	9
	4
	4
	0
	9
	5
	0
	4
	9
	0
	5
	9
	4
	5
	0
	9
	4
	4
	1
	4
	9
	4
	10
	10
	9
	10
